datasets/20l7i.nl
g3 4 1 0	# problem 20l7i
 504 176 1 0 147	# vars, constraints, objectives, ranges, eqns
 0 1	# nonlinear constraints, objectives
 0 0	# network constraints: nonlinear, linear
 0 126 0	# nonlinear vars in constraints, objectives, both
 0 0 0 1	# linear network variables; functions; arith, flags
 0 378 0 0 126	# discrete variables: binary, integer, nonlinear (b,c,o)
 1932 462	# nonzeros in Jacobian, gradients
 0 0	# max name lengths: constraints, variables
 0 0 0 0 0	# common exprs: b,c,o,c1,o1
b
2 0
2 0
2 0
2 0
2 0
2 0
2 0
2 0
2 0
2 0
2 0
2 0
2 0
2 0
2 0
2 0
2 0
2 0
2 0
2 0
2 0
2 0
2 0
2 0
2 0
2 0
2 0
2 0
2 0
2 0
2 0
2 0
2 0
2 0
2 0
2 0
2 0
2 0
2 0
2 0
2 0
2 0
2 0
2 0
2 0
2 0
2 0
2 0
2 0
2 0
2 0
2 0
2 0
2 0
2 0
2 0
2 0
2 0
2 0
2 0
2 0
2 0
2 0
2 0
2 0
2 0
2 0
2 0
2 0
2 0
2 0
2 0
2 0
2 0
2 0
2 0
2 0
2 0
2 0
2 0
2 0
2 0
2 0
2 0
2 0
2 0
2 0
2 0
2 0
2 0
2 0
2 0
2 0
2 0
2 0
2 0
2 0
2 0
2 0
2 0
2 0
2 0
2 0
2 0
2 0
2 0
2 0
2 0
2 0
2 0
2 0
2 0
2 0
2 0
2 0
2 0
2 0
2 0
2 0
2 0
2 0
2 0
2 0
2 0
2 0
2 0
0 0 60
0 0 70
0 0 70
0 0 50
0 0 30
0 0 90
0 0 150
0 0 60
0 0 70
0 0 70
0 0 50
0 0 30
0 0 90
0 0 150
0 0 60
0 0 70
0 0 70
0 0 50
0 0 30
0 0 90
0 0 150
0 0 60
0 0 70
0 0 70
0 0 50
0 0 30
0 0 90
0 0 150
0 0 60
0 0 70
0 0 70
0 0 50
0 0 30
0 0 90
0 0 150
0 0 60
0 0 70
0 0 70
0 0 50
0 0 30
0 0 90
0 0 150
0 0 60
0 0 90
0 0 80
0 0 100
0 0 80
0 0 80
0 0 90
0 0 60
0 0 90
0 0 80
0 0 100
0 0 80
0 0 80
0 0 90
0 0 60
0 0 90
0 0 80
0 0 100
0 0 80
0 0 80
0 0 90
0 0 60
0 0 90
0 0 80
0 0 100
0 0 80
0 0 80
0 0 90
0 0 60
0 0 90
0 0 80
0 0 100
0 0 80
0 0 80
0 0 90
0 0 60
0 0 90
0 0 80
0 0 100
0 0 80
0 0 80
0 0 90
0 0 70
0 0 70
0 0 60
0 0 50
0 0 90
0 0 90
0 0 50
0 0 70
0 0 70
0 0 60
0 0 50
0 0 90
0 0 90
0 0 50
0 0 70
0 0 70
0 0 60
0 0 50
0 0 90
0 0 90
0 0 50
0 0 70
0 0 70
0 0 60
0 0 50
0 0 90
0 0 90
0 0 50
0 0 70
0 0 70
0 0 60
0 0 50
0 0 90
0 0 90
0 0 50
0 0 70
0 0 70
0 0 60
0 0 50
0 0 90
0 0 90
0 0 50
0 0 70
0 0 50
0 0 70
0 0 90
0 0 110
0 0 80
0 0 70
0 0 70
0 0 50
0 0 70
0 0 90
0 0 110
0 0 80
0 0 70
0 0 70
0 0 50
0 0 70
0 0 90
0 0 110
0 0 80
0 0 70
0 0 70
0 0 50
0 0 70
0 0 90
0 0 110
0 0 80
0 0 70
0 0 70
0 0 50
0 0 70
0 0 90
0 0 110
0 0 80
0 0 70
0 0 70
0 0 50
0 0 70
0 0 90
0 0 110
0 0 80
0 0 70
0 0 140
0 0 120
0 0 120
0 0 110
0 0 90
0 0 60
0 0 40
0 0 140
0 0 120
0 0 120
0 0 110
0 0 90
0 0 60
0 0 40
0 0 140
0 0 120
0 0 120
0 0 110
0 0 90
0 0 60
0 0 40
0 0 140
0 0 120
0 0 120
0 0 110
0 0 90
0 0 60
0 0 40
0 0 140
0 0 120
0 0 120
0 0 110
0 0 90
0 0 60
0 0 40
0 0 140
0 0 120
0 0 120
0 0 110
0 0 90
0 0 60
0 0 40
0 0 400
0 0 400
0 0 400
0 0 400
0 0 400
0 0 400
0 0 400
0 0 400
0 0 400
0 0 400
0 0 400
0 0 400
0 0 400
0 0 400
0 0 400
0 0 400
0 0 400
0 0 400
0 0 400
0 0 400
0 0 400
0 0 400
0 0 400
0 0 400
0 0 400
0 0 400
0 0 400
0 0 400
0 0 400
0 0 400
0 0 400
0 0 400
0 0 400
0 0 400
0 0 400
0 0 400
0 0 400
0 0 400
0 0 400
0 0 400
0 0 400
0 0 400
0 0 400
0 0 400
0 0 400
0 0 400
0 0 400
0 0 400
0 0 400
0 0 400
0 0 400
0 0 400
0 0 400
0 0 400
0 0 400
0 0 400
0 0 400
0 0 400
0 0 400
0 0 400
0 0 400
0 0 400
0 0 400
0 0 400
0 0 400
0 0 400
0 0 400
0 0 400
0 0 400
0 0 400
0 0 400
0 0 400
0 0 400
0 0 400
0 0 400
0 0 400
0 0 400
0 0 400
0 0 400
0 0 400
0 0 400
0 0 400
0 0 400
0 0 400
0 0 400
0 0 400
0 0 400
0 0 400
0 0 400
0 0 400
0 0 400
0 0 400
0 0 400
0 0 400
0 0 400
0 0 400
0 0 400
0 0 400
0 0 400
0 0 400
0 0 400
0 0 400
0 0 400
0 0 400
0 0 400
0 0 400
0 0 400
0 0 400
0 0 400
0 0 400
0 0 400
0 0 400
0 0 400
0 0 400
0 0 400
0 0 400
0 0 400
0 0 400
0 0 400
0 0 400
0 0 400
0 0 400
0 0 400
0 0 400
0 0 400
0 0 400
0 0 60
0 0 60
0 0 100
0 0 40
0 0 60
0 0 90
0 0 70
0 0 90
0 0 90
0 0 70
0 0 80
0 0 100
0 0 40
0 0 80
0 0 50
0 0 30
0 0 60
0 0 90
0 0 80
0 0 70
0 0 40
0 0 20
0 0 50
0 0 50
0 0 100
0 0 100
0 0 40
0 0 80
0 0 80
0 0 100
0 0 90
0 0 80
0 0 50
0 0 70
0 0 80
0 0 100
0 0 100
0 0 100
0 0 100
0 0 60
0 0 100
0 0 100
r
4 60
4 70
4 70
4 50
4 30
4 90
4 150
4 60
4 90
4 80
4 100
4 80
4 80
4 90
4 70
4 70
4 60
4 50
4 90
4 90
4 50
4 70
4 50
4 70
4 90
4 110
4 80
4 70
4 140
4 120
4 120
4 110
4 90
4 60
4 40
4 0
4 0
4 0
4 0
4 0
4 0
4 0
4 0
4 0
4 0
4 0
4 0
4 0
4 0
4 0
4 0
4 0
4 0
4 0
4 0
4 0
4 0
4 0
4 0
4 0
4 0
4 0
4 0
4 0
4 0
4 0
4 0
4 0
4 0
4 0
4 0
4 0
4 0
4 0
4 0
4 0
4 0
4 0
4 0
4 0
4 0
4 0
4 0
4 0
4 0
4 0
4 0
4 0
4 0
4 0
4 0
4 0
4 0
4 0
4 0
4 0
4 0
4 0
4 -60
4 -60
4 -100
4 -40
4 -60
4 -90
4 -70
4 -90
4 -90
4 -70
4 -80
4 -150
4 -40
4 -80
4 -50
4 -30
4 -60
4 -90
4 -80
4 -70
4 -40
4 -20
4 -50
4 -50
4 -100
4 -100
4 -40
4 -80
4 -80
4 -130
4 -90
4 -80
4 -50
4 -70
4 -80
4 -200
4 -140
4 -130
4 -110
4 -60
4 -190
4 -150
4 100
4 100
4 100
4 100
4 100
4 100
4 100
1 565
1 602
1 581
1 572
1 551
1 969
1 1173
1 1124
1 1517
1 480
1 600
1 420
1 440
1 580
1 980
1 520
1 580
1 480
1 540
1 680
1 565
1 602
1 581
1 572
1 551
1 969
1 1173
1 1124
1 1517
C0
n0
C1
n0
C2
n0
C3
n0
C4
n0
C5
n0
C6
n0
C7
n0
C8
n0
C9
n0
C10
n0
C11
n0
C12
n0
C13
n0
C14
n0
C15
n0
C16
n0
C17
n0
C18
n0
C19
n0
C20
n0
C21
n0
C22
n0
C23
n0
C24
n0
C25
n0
C26
n0
C27
n0
C28
n0
C29
n0
C30
n0
C31
n0
C32
n0
C33
n0
C34
n0
C35
n0
C36
n0
C37
n0
C38
n0
C39
n0
C40
n0
C41
n0
C42
n0
C43
n0
C44
n0
C45
n0
C46
n0
C47
n0
C48
n0
C49
n0
C50
n0
C51
n0
C52
n0
C53
n0
C54
n0
C55
n0
C56
n0
C57
n0
C58
n0
C59
n0
C60
n0
C61
n0
C62
n0
C63
n0
C64
n0
C65
n0
C66
n0
C67
n0
C68
n0
C69
n0
C70
n0
C71
n0
C72
n0
C73
n0
C74
n0
C75
n0
C76
n0
C77
n0
C78
n0
C79
n0
C80
n0
C81
n0
C82
n0
C83
n0
C84
n0
C85
n0
C86
n0
C87
n0
C88
n0
C89
n0
C90
n0
C91
n0
C92
n0
C93
n0
C94
n0
C95
n0
C96
n0
C97
n0
C98
n0
C99
n0
C100
n0
C101
n0
C102
n0
C103
n0
C104
n0
C105
n0
C106
n0
C107
n0
C108
n0
C109
n0
C110
n0
C111
n0
C112
n0
C113
n0
C114
n0
C115
n0
C116
n0
C117
n0
C118
n0
C119
n0
C120
n0
C121
n0
C122
n0
C123
n0
C124
n0
C125
n0
C126
n0
C127
n0
C128
n0
C129
n0
C130
n0
C131
n0
C132
n0
C133
n0
C134
n0
C135
n0
C136
n0
C137
n0
C138
n0
C139
n0
C140
n0
C141
n0
C142
n0
C143
n0
C144
n0
C145
n0
C146
n0
C147
n0
C148
n0
C149
n0
C150
n0
C151
n0
C152
n0
C153
n0
C154
n0
C155
n0
C156
n0
C157
n0
C158
n0
C159
n0
C160
n0
C161
n0
C162
n0
C163
n0
C164
n0
C165
n0
C166
n0
C167
n0
C168
n0
C169
n0
C170
n0
C171
n0
C172
n0
C173
n0
C174
n0
C175
n0
O0 0
o54
42
o2
n10000
o5
o16
o3
o54
3
v0
v42
v84
n-60
n2
o2
n10000
o5
o16
o3
o54
3
v1
v43
v85
n-60
n2
o2
n10000
o5
o16
o3
o54
3
v2
v44
v86
n-100
n2
o2
n10000
o5
o16
o3
o54
3
v3
v45
v87
n-40
n2
o2
n10000
o5
o16
o3
o54
3
v4
v46
v88
n-60
n2
o2
n10000
o5
o16
o3
o54
3
v5
v47
v89
n-90
n2
o2
n10000
o5
o16
o3
o54
3
v6
v48
v90
n-70
n2
o2
n10000
o5
o16
o3
o54
3
v7
v49
v91
n-90
n2
o2
n10000
o5
o16
o3
o54
3
v8
v50
v92
n-90
n2
o2
n10000
o5
o16
o3
o54
3
v9
v51
v93
n-70
n2
o2
n10000
o5
o16
o3
o54
3
v10
v52
v94
n-80
n2
o2
n10000
o5
o16
o3
o54
3
v11
v53
v95
n-150
n2
o2
n10000
o5
o16
o3
o54
3
v12
v54
v96
n-40
n2
o2
n10000
o5
o16
o3
o54
3
v13
v55
v97
n-80
n2
o2
n10000
o5
o16
o3
o54
3
v14
v56
v98
n-50
n2
o2
n10000
o5
o16
o3
o54
3
v15
v57
v99
n-30
n2
o2
n10000
o5
o16
o3
o54
3
v16
v58
v100
n-60
n2
o2
n10000
o5
o16
o3
o54
3
v17
v59
v101
n-90
n2
o2
n10000
o5
o16
o3
o54
3
v18
v60
v102
n-80
n2
o2
n10000
o5
o16
o3
o54
3
v19
v61
v103
n-70
n2
o2
n10000
o5
o16
o3
o54
3
v20
v62
v104
n-40
n2
o2
n10000
o5
o16
o3
o54
3
v21
v63
v105
n-20
n2
o2
n10000
o5
o16
o3
o54
3
v22
v64
v106
n-50
n2
o2
n10000
o5
o16
o3
o54
3
v23
v65
v107
n-50
n2
o2
n10000
o5
o16
o3
o54
3
v24
v66
v108
n-100
n2
o2
n10000
o5
o16
o3
o54
3
v25
v67
v109
n-100
n2
o2
n10000
o5
o16
o3
o54
3
v26
v68
v110
n-40
n2
o2
n10000
o5
o16
o3
o54
3
v27
v69
v111
n-80
n2
o2
n10000
o5
o16
o3
o54
3
v28
v70
v112
n-80
n2
o2
n10000
o5
o16
o3
o54
3
v29
v71
v113
n-130
n2
o2
n10000
o5
o16
o3
o54
3
v30
v72
v114
n-90
n2
o2
n10000
o5
o16
o3
o54
3
v31
v73
v115
n-80
n2
o2
n10000
o5
o16
o3
o54
3
v32
v74
v116
n-50
n2
o2
n10000
o5
o16
o3
o54
3
v33
v75
v117
n-70
n2
o2
n10000
o5
o16
o3
o54
3
v34
v76
v118
n-80
n2
o2
n10000
o5
o16
o3
o54
3
v35
v77
v119
n-200
n2
o2
n10000
o5
o16
o3
o54
3
v36
v78
v120
n-140
n2
o2
n10000
o5
o16
o3
o54
3
v37
v79
v121
n-130
n2
o2
n10000
o5
o16
o3
o54
3
v38
v80
v122
n-110
n2
o2
n10000
o5
o16
o3
o54
3
v39
v81
v123
n-60
n2
o2
n10000
o5
o16
o3
o54
3
v40
v82
v124
n-190
n2
o2
n10000
o5
o16
o3
o54
3
v41
v83
v125
n-150
n2
k503
4
8
12
16
20
24
28
32
36
40
44
48
52
56
60
64
68
72
76
80
84
88
92
96
100
104
108
112
116
120
124
128
132
136
140
144
148
152
156
160
164
168
172
176
180
184
188
192
196
200
204
208
212
216
220
224
228
232
236
240
244
248
252
256
260
264
268
272
276
280
284
288
292
296
300
304
308
312
316
320
324
328
332
336
340
344
348
352
356
360
364
368
372
376
380
384
388
392
396
400
404
408
412
416
420
424
428
432
436
440
444
448
452
456
460
464
468
472
476
480
484
488
492
496
500
504
508
512
516
520
524
528
532
536
540
544
548
552
556
560
564
568
572
576
580
584
588
592
596
600
604
608
612
616
620
624
628
632
636
640
644
648
652
656
660
664
668
672
676
680
684
688
692
696
700
704
708
712
716
720
724
728
732
736
740
744
748
752
756
760
764
768
772
776
780
784
788
792
796
800
804
808
812
816
820
824
828
832
836
840
844
848
852
856
860
864
868
872
876
880
884
888
892
896
900
904
908
912
916
920
924
928
932
936
940
944
948
952
956
960
964
968
972
976
980
984
988
992
996
1000
1004
1008
1012
1016
1020
1024
1028
1032
1036
1040
1044
1048
1052
1056
1060
1064
1068
1072
1076
1080
1084
1088
1092
1096
1100
1104
1108
1112
1116
1120
1124
1128
1132
1136
1140
1144
1148
1152
1156
1160
1164
1168
1172
1176
1180
1184
1188
1192
1196
1200
1204
1208
1212
1216
1220
1224
1228
1232
1236
1240
1244
1248
1252
1256
1260
1264
1268
1272
1276
1280
1284
1288
1292
1296
1300
1304
1308
1312
1316
1320
1324
1328
1332
1336
1340
1344
1348
1352
1356
1360
1364
1368
1372
1376
1380
1384
1388
1392
1396
1400
1404
1408
1412
1416
1420
1424
1428
1432
1436
1440
1444
1448
1452
1456
1460
1464
1468
1472
1476
1480
1484
1488
1492
1496
1500
1504
1508
1512
1516
1520
1524
1528
1532
1536
1540
1544
1548
1552
1556
1560
1564
1568
1572
1576
1580
1584
1588
1592
1596
1600
1604
1608
1612
1616
1620
1624
1628
1632
1636
1640
1644
1648
1652
1656
1660
1664
1668
1672
1676
1680
1684
1688
1692
1696
1700
1704
1708
1712
1716
1720
1724
1728
1732
1736
1740
1744
1748
1752
1756
1760
1764
1768
1772
1776
1780
1784
1788
1792
1796
1800
1804
1808
1812
1816
1820
1824
1828
1832
1836
1840
1844
1848
1850
1852
1854
1856
1858
1860
1862
1864
1866
1868
1870
1872
1874
1876
1878
1880
1882
1884
1886
1888
1890
1892
1894
1896
1898
1900
1902
1904
1906
1908
1910
1912
1914
1916
1918
1920
1922
1924
1926
1928
1930
J0 6
126 1
133 1
140 1
147 1
154 1
161 1
J1 6
127 1
134 1
141 1
148 1
155 1
162 1
J2 6
128 1
135 1
142 1
149 1
156 1
163 1
J3 6
129 1
136 1
143 1
150 1
157 1
164 1
J4 6
130 1
137 1
144 1
151 1
158 1
165 1
J5 6
131 1
138 1
145 1
152 1
159 1
166 1
J6 6
132 1
139 1
146 1
153 1
160 1
167 1
J7 6
168 1
175 1
182 1
189 1
196 1
203 1
J8 6
169 1
176 1
183 1
190 1
197 1
204 1
J9 6
170 1
177 1
184 1
191 1
198 1
205 1
J10 6
171 1
178 1
185 1
192 1
199 1
206 1
J11 6
172 1
179 1
186 1
193 1
200 1
207 1
J12 6
173 1
180 1
187 1
194 1
201 1
208 1
J13 6
174 1
181 1
188 1
195 1
202 1
209 1
J14 6
210 1
217 1
224 1
231 1
238 1
245 1
J15 6
211 1
218 1
225 1
232 1
239 1
246 1
J16 6
212 1
219 1
226 1
233 1
240 1
247 1
J17 6
213 1
220 1
227 1
234 1
241 1
248 1
J18 6
214 1
221 1
228 1
235 1
242 1
249 1
J19 6
215 1
222 1
229 1
236 1
243 1
250 1
J20 6
216 1
223 1
230 1
237 1
244 1
251 1
J21 6
252 1
259 1
266 1
273 1
280 1
287 1
J22 6
253 1
260 1
267 1
274 1
281 1
288 1
J23 6
254 1
261 1
268 1
275 1
282 1
289 1
J24 6
255 1
262 1
269 1
276 1
283 1
290 1
J25 6
256 1
263 1
270 1
277 1
284 1
291 1
J26 6
257 1
264 1
271 1
278 1
285 1
292 1
J27 6
258 1
265 1
272 1
279 1
286 1
293 1
J28 6
294 1
301 1
308 1
315 1
322 1
329 1
J29 6
295 1
302 1
309 1
316 1
323 1
330 1
J30 6
296 1
303 1
310 1
317 1
324 1
331 1
J31 6
297 1
304 1
311 1
318 1
325 1
332 1
J32 6
298 1
305 1
312 1
319 1
326 1
333 1
J33 6
299 1
306 1
313 1
320 1
327 1
334 1
J34 6
300 1
307 1
314 1
321 1
328 1
335 1
J35 8
126 -1
168 -1
210 -1
252 -1
294 -1
336 1
343 1
350 1
J36 8
127 -1
169 -1
211 -1
253 -1
295 -1
337 1
344 1
351 1
J37 8
128 -1
170 -1
212 -1
254 -1
296 -1
338 1
345 1
352 1
J38 8
129 -1
171 -1
213 -1
255 -1
297 -1
339 1
346 1
353 1
J39 8
130 -1
172 -1
214 -1
256 -1
298 -1
340 1
347 1
354 1
J40 8
131 -1
173 -1
215 -1
257 -1
299 -1
341 1
348 1
355 1
J41 8
132 -1
174 -1
216 -1
258 -1
300 -1
342 1
349 1
356 1
J42 8
133 -1
175 -1
217 -1
259 -1
301 -1
357 1
364 1
371 1
J43 8
134 -1
176 -1
218 -1
260 -1
302 -1
358 1
365 1
372 1
J44 8
135 -1
177 -1
219 -1
261 -1
303 -1
359 1
366 1
373 1
J45 8
136 -1
178 -1
220 -1
262 -1
304 -1
360 1
367 1
374 1
J46 8
137 -1
179 -1
221 -1
263 -1
305 -1
361 1
368 1
375 1
J47 8
138 -1
180 -1
222 -1
264 -1
306 -1
362 1
369 1
376 1
J48 8
139 -1
181 -1
223 -1
265 -1
307 -1
363 1
370 1
377 1
J49 8
140 -1
182 -1
224 -1
266 -1
308 -1
378 1
385 1
392 1
J50 8
141 -1
183 -1
225 -1
267 -1
309 -1
379 1
386 1
393 1
J51 8
142 -1
184 -1
226 -1
268 -1
310 -1
380 1
387 1
394 1
J52 8
143 -1
185 -1
227 -1
269 -1
311 -1
381 1
388 1
395 1
J53 8
144 -1
186 -1
228 -1
270 -1
312 -1
382 1
389 1
396 1
J54 8
145 -1
187 -1
229 -1
271 -1
313 -1
383 1
390 1
397 1
J55 8
146 -1
188 -1
230 -1
272 -1
314 -1
384 1
391 1
398 1
J56 8
147 -1
189 -1
231 -1
273 -1
315 -1
399 1
406 1
413 1
J57 8
148 -1
190 -1
232 -1
274 -1
316 -1
400 1
407 1
414 1
J58 8
149 -1
191 -1
233 -1
275 -1
317 -1
401 1
408 1
415 1
J59 8
150 -1
192 -1
234 -1
276 -1
318 -1
402 1
409 1
416 1
J60 8
151 -1
193 -1
235 -1
277 -1
319 -1
403 1
410 1
417 1
J61 8
152 -1
194 -1
236 -1
278 -1
320 -1
404 1
411 1
418 1
J62 8
153 -1
195 -1
237 -1
279 -1
321 -1
405 1
412 1
419 1
J63 8
154 -1
196 -1
238 -1
280 -1
322 -1
420 1
427 1
434 1
J64 8
155 -1
197 -1
239 -1
281 -1
323 -1
421 1
428 1
435 1
J65 8
156 -1
198 -1
240 -1
282 -1
324 -1
422 1
429 1
436 1
J66 8
157 -1
199 -1
241 -1
283 -1
325 -1
423 1
430 1
437 1
J67 8
158 -1
200 -1
242 -1
284 -1
326 -1
424 1
431 1
438 1
J68 8
159 -1
201 -1
243 -1
285 -1
327 -1
425 1
432 1
439 1
J69 8
160 -1
202 -1
244 -1
286 -1
328 -1
426 1
433 1
440 1
J70 8
161 -1
203 -1
245 -1
287 -1
329 -1
441 1
448 1
455 1
J71 8
162 -1
204 -1
246 -1
288 -1
330 -1
442 1
449 1
456 1
J72 8
163 -1
205 -1
247 -1
289 -1
331 -1
443 1
450 1
457 1
J73 8
164 -1
206 -1
248 -1
290 -1
332 -1
444 1
451 1
458 1
J74 8
165 -1
207 -1
249 -1
291 -1
333 -1
445 1
452 1
459 1
J75 8
166 -1
208 -1
250 -1
292 -1
334 -1
446 1
453 1
460 1
J76 8
167 -1
209 -1
251 -1
293 -1
335 -1
447 1
454 1
461 1
J77 12
0 1
7 1
14 1
21 1
28 1
35 1
336 -1
357 -1
378 -1
399 -1
420 -1
441 -1
J78 12
1 1
8 1
15 1
22 1
29 1
36 1
337 -1
358 -1
379 -1
400 -1
421 -1
442 -1
J79 12
2 1
9 1
16 1
23 1
30 1
37 1
338 -1
359 -1
380 -1
401 -1
422 -1
443 -1
J80 12
3 1
10 1
17 1
24 1
31 1
38 1
339 -1
360 -1
381 -1
402 -1
423 -1
444 -1
J81 12
4 1
11 1
18 1
25 1
32 1
39 1
340 -1
361 -1
382 -1
403 -1
424 -1
445 -1
J82 12
5 1
12 1
19 1
26 1
33 1
40 1
341 -1
362 -1
383 -1
404 -1
425 -1
446 -1
J83 12
6 1
13 1
20 1
27 1
34 1
41 1
342 -1
363 -1
384 -1
405 -1
426 -1
447 -1
J84 12
42 1
49 1
56 1
63 1
70 1
77 1
343 -1
364 -1
385 -1
406 -1
427 -1
448 -1
J85 12
43 1
50 1
57 1
64 1
71 1
78 1
344 -1
365 -1
386 -1
407 -1
428 -1
449 -1
J86 12
44 1
51 1
58 1
65 1
72 1
79 1
345 -1
366 -1
387 -1
408 -1
429 -1
450 -1
J87 12
45 1
52 1
59 1
66 1
73 1
80 1
346 -1
367 -1
388 -1
409 -1
430 -1
451 -1
J88 12
46 1
53 1
60 1
67 1
74 1
81 1
347 -1
368 -1
389 -1
410 -1
431 -1
452 -1
J89 12
47 1
54 1
61 1
68 1
75 1
82 1
348 -1
369 -1
390 -1
411 -1
432 -1
453 -1
J90 12
48 1
55 1
62 1
69 1
76 1
83 1
349 -1
370 -1
391 -1
412 -1
433 -1
454 -1
J91 12
84 1
91 1
98 1
105 1
112 1
119 1
350 -1
371 -1
392 -1
413 -1
434 -1
455 -1
J92 12
85 1
92 1
99 1
106 1
113 1
120 1
351 -1
372 -1
393 -1
414 -1
435 -1
456 -1
J93 12
86 1
93 1
100 1
107 1
114 1
121 1
352 -1
373 -1
394 -1
415 -1
436 -1
457 -1
J94 12
87 1
94 1
101 1
108 1
115 1
122 1
353 -1
374 -1
395 -1
416 -1
437 -1
458 -1
J95 12
88 1
95 1
102 1
109 1
116 1
123 1
354 -1
375 -1
396 -1
417 -1
438 -1
459 -1
J96 12
89 1
96 1
103 1
110 1
117 1
124 1
355 -1
376 -1
397 -1
418 -1
439 -1
460 -1
J97 12
90 1
97 1
104 1
111 1
118 1
125 1
356 -1
377 -1
398 -1
419 -1
440 -1
461 -1
J98 4
0 -1
42 -1
84 -1
462 -1
J99 4
1 -1
43 -1
85 -1
463 -1
J100 4
2 -1
44 -1
86 -1
464 -1
J101 4
3 -1
45 -1
87 -1
465 -1
J102 4
4 -1
46 -1
88 -1
466 -1
J103 4
5 -1
47 -1
89 -1
467 -1
J104 4
6 -1
48 -1
90 -1
468 -1
J105 4
7 -1
49 -1
91 -1
469 -1
J106 4
8 -1
50 -1
92 -1
470 -1
J107 4
9 -1
51 -1
93 -1
471 -1
J108 4
10 -1
52 -1
94 -1
472 -1
J109 4
11 -1
53 -1
95 -1
473 -1
J110 4
12 -1
54 -1
96 -1
474 -1
J111 4
13 -1
55 -1
97 -1
475 -1
J112 4
14 -1
56 -1
98 -1
476 -1
J113 4
15 -1
57 -1
99 -1
477 -1
J114 4
16 -1
58 -1
100 -1
478 -1
J115 4
17 -1
59 -1
101 -1
479 -1
J116 4
18 -1
60 -1
102 -1
480 -1
J117 4
19 -1
61 -1
103 -1
481 -1
J118 4
20 -1
62 -1
104 -1
482 -1
J119 4
21 -1
63 -1
105 -1
483 -1
J120 4
22 -1
64 -1
106 -1
484 -1
J121 4
23 -1
65 -1
107 -1
485 -1
J122 4
24 -1
66 -1
108 -1
486 -1
J123 4
25 -1
67 -1
109 -1
487 -1
J124 4
26 -1
68 -1
110 -1
488 -1
J125 4
27 -1
69 -1
111 -1
489 -1
J126 4
28 -1
70 -1
112 -1
490 -1
J127 4
29 -1
71 -1
113 -1
491 -1
J128 4
30 -1
72 -1
114 -1
492 -1
J129 4
31 -1
73 -1
115 -1
493 -1
J130 4
32 -1
74 -1
116 -1
494 -1
J131 4
33 -1
75 -1
117 -1
495 -1
J132 4
34 -1
76 -1
118 -1
496 -1
J133 4
35 -1
77 -1
119 -1
497 -1
J134 4
36 -1
78 -1
120 -1
498 -1
J135 4
37 -1
79 -1
121 -1
499 -1
J136 4
38 -1
80 -1
122 -1
500 -1
J137 4
39 -1
81 -1
123 -1
501 -1
J138 4
40 -1
82 -1
124 -1
502 -1
J139 4
41 -1
83 -1
125 -1
503 -1
J140 6
462 1
469 1
476 1
483 1
490 1
497 1
J141 6
463 1
470 1
477 1
484 1
491 1
498 1
J142 6
464 1
471 1
478 1
485 1
492 1
499 1
J143 6
465 1
472 1
479 1
486 1
493 1
500 1
J144 6
466 1
473 1
480 1
487 1
494 1
501 1
J145 6
467 1
474 1
481 1
488 1
495 1
502 1
J146 6
468 1
475 1
482 1
489 1
496 1
503 1
J147 35
126 1
127 1
128 1
129 1
130 1
131 1
132 1
168 1
169 1
170 1
171 1
172 1
173 1
174 1
210 1
211 1
212 1
213 1
214 1
215 1
216 1
252 1
253 1
254 1
255 1
256 1
257 1
258 1
294 1
295 1
296 1
297 1
298 1
299 1
300 1
J148 35
133 1
134 1
135 1
136 1
137 1
138 1
139 1
175 1
176 1
177 1
178 1
179 1
180 1
181 1
217 1
218 1
219 1
220 1
221 1
222 1
223 1
259 1
260 1
261 1
262 1
263 1
264 1
265 1
301 1
302 1
303 1
304 1
305 1
306 1
307 1
J149 35
140 1
141 1
142 1
143 1
144 1
145 1
146 1
182 1
183 1
184 1
185 1
186 1
187 1
188 1
224 1
225 1
226 1
227 1
228 1
229 1
230 1
266 1
267 1
268 1
269 1
270 1
271 1
272 1
308 1
309 1
310 1
311 1
312 1
313 1
314 1
J150 35
147 1
148 1
149 1
150 1
151 1
152 1
153 1
189 1
190 1
191 1
192 1
193 1
194 1
195 1
231 1
232 1
233 1
234 1
235 1
236 1
237 1
273 1
274 1
275 1
276 1
277 1
278 1
279 1
315 1
316 1
317 1
318 1
319 1
320 1
321 1
J151 35
154 1
155 1
156 1
157 1
158 1
159 1
160 1
196 1
197 1
198 1
199 1
200 1
201 1
202 1
238 1
239 1
240 1
241 1
242 1
243 1
244 1
280 1
281 1
282 1
283 1
284 1
285 1
286 1
322 1
323 1
324 1
325 1
326 1
327 1
328 1
J152 35
161 1
162 1
163 1
164 1
165 1
166 1
167 1
203 1
204 1
205 1
206 1
207 1
208 1
209 1
245 1
246 1
247 1
248 1
249 1
250 1
251 1
287 1
288 1
289 1
290 1
291 1
292 1
293 1
329 1
330 1
331 1
332 1
333 1
334 1
335 1
J153 42
336 1
337 1
338 1
339 1
340 1
341 1
342 1
357 1
358 1
359 1
360 1
361 1
362 1
363 1
378 1
379 1
380 1
381 1
382 1
383 1
384 1
399 1
400 1
401 1
402 1
403 1
404 1
405 1
420 1
421 1
422 1
423 1
424 1
425 1
426 1
441 1
442 1
443 1
444 1
445 1
446 1
447 1
J154 42
343 1
344 1
345 1
346 1
347 1
348 1
349 1
364 1
365 1
366 1
367 1
368 1
369 1
370 1
385 1
386 1
387 1
388 1
389 1
390 1
391 1
406 1
407 1
408 1
409 1
410 1
411 1
412 1
427 1
428 1
429 1
430 1
431 1
432 1
433 1
448 1
449 1
450 1
451 1
452 1
453 1
454 1
J155 42
350 1
351 1
352 1
353 1
354 1
355 1
356 1
371 1
372 1
373 1
374 1
375 1
376 1
377 1
392 1
393 1
394 1
395 1
396 1
397 1
398 1
413 1
414 1
415 1
416 1
417 1
418 1
419 1
434 1
435 1
436 1
437 1
438 1
439 1
440 1
455 1
456 1
457 1
458 1
459 1
460 1
461 1
J156 21
0 1
1 1
2 1
3 1
4 1
5 1
6 1
42 1
43 1
44 1
45 1
46 1
47 1
48 1
84 1
85 1
86 1
87 1
88 1
89 1
90 1
J157 21
7 1
8 1
9 1
10 1
11 1
12 1
13 1
49 1
50 1
51 1
52 1
53 1
54 1
55 1
91 1
92 1
93 1
94 1
95 1
96 1
97 1
J158 21
14 1
15 1
16 1
17 1
18 1
19 1
20 1
56 1
57 1
58 1
59 1
60 1
61 1
62 1
98 1
99 1
100 1
101 1
102 1
103 1
104 1
J159 21
21 1
22 1
23 1
24 1
25 1
26 1
27 1
63 1
64 1
65 1
66 1
67 1
68 1
69 1
105 1
106 1
107 1
108 1
109 1
110 1
111 1
J160 21
28 1
29 1
30 1
31 1
32 1
33 1
34 1
70 1
71 1
72 1
73 1
74 1
75 1
76 1
112 1
113 1
114 1
115 1
116 1
117 1
118 1
J161 21
35 1
36 1
37 1
38 1
39 1
40 1
41 1
77 1
78 1
79 1
80 1
81 1
82 1
83 1
119 1
120 1
121 1
122 1
123 1
124 1
125 1
J162 42
126 1
127 1
128 1
129 1
130 1
131 1
132 1
133 1
134 1
135 1
136 1
137 1
138 1
139 1
140 1
141 1
142 1
143 1
144 1
145 1
146 1
147 1
148 1
149 1
150 1
151 1
152 1
153 1
154 1
155 1
156 1
157 1
158 1
159 1
160 1
161 1
162 1
163 1
164 1
165 1
166 1
167 1
J163 42
168 1
169 1
170 1
171 1
172 1
173 1
174 1
175 1
176 1
177 1
178 1
179 1
180 1
181 1
182 1
183 1
184 1
185 1
186 1
187 1
188 1
189 1
190 1
191 1
192 1
193 1
194 1
195 1
196 1
197 1
198 1
199 1
200 1
201 1
202 1
203 1
204 1
205 1
206 1
207 1
208 1
209 1
J164 42
210 1
211 1
212 1
213 1
214 1
215 1
216 1
217 1
218 1
219 1
220 1
221 1
222 1
223 1
224 1
225 1
226 1
227 1
228 1
229 1
230 1
231 1
232 1
233 1
234 1
235 1
236 1
237 1
238 1
239 1
240 1
241 1
242 1
243 1
244 1
245 1
246 1
247 1
248 1
249 1
250 1
251 1
J165 42
252 1
253 1
254 1
255 1
256 1
257 1
258 1
259 1
260 1
261 1
262 1
263 1
264 1
265 1
266 1
267 1
268 1
269 1
270 1
271 1
272 1
273 1
274 1
275 1
276 1
277 1
278 1
279 1
280 1
281 1
282 1
283 1
284 1
285 1
286 1
287 1
288 1
289 1
290 1
291 1
292 1
293 1
J166 42
294 1
295 1
296 1
297 1
298 1
299 1
300 1
301 1
302 1
303 1
304 1
305 1
306 1
307 1
308 1
309 1
310 1
311 1
312 1
313 1
314 1
315 1
316 1
317 1
318 1
319 1
320 1
321 1
322 1
323 1
324 1
325 1
326 1
327 1
328 1
329 1
330 1
331 1
332 1
333 1
334 1
335 1
J167 21
336 1
337 1
338 1
339 1
340 1
341 1
342 1
343 1
344 1
345 1
346 1
347 1
348 1
349 1
350 1
351 1
352 1
353 1
354 1
355 1
356 1
J168 21
357 1
358 1
359 1
360 1
361 1
362 1
363 1
364 1
365 1
366 1
367 1
368 1
369 1
370 1
371 1
372 1
373 1
374 1
375 1
376 1
377 1
J169 21
378 1
379 1
380 1
381 1
382 1
383 1
384 1
385 1
386 1
387 1
388 1
389 1
390 1
391 1
392 1
393 1
394 1
395 1
396 1
397 1
398 1
J170 21
399 1
400 1
401 1
402 1
403 1
404 1
405 1
406 1
407 1
408 1
409 1
410 1
411 1
412 1
413 1
414 1
415 1
416 1
417 1
418 1
419 1
J171 21
420 1
421 1
422 1
423 1
424 1
425 1
426 1
427 1
428 1
429 1
430 1
431 1
432 1
433 1
434 1
435 1
436 1
437 1
438 1
439 1
440 1
J172 21
441 1
442 1
443 1
444 1
445 1
446 1
447 1
448 1
449 1
450 1
451 1
452 1
453 1
454 1
455 1
456 1
457 1
458 1
459 1
460 1
461 1
J173 42
0 1
1 1
2 1
3 1
4 1
5 1
6 1
7 1
8 1
9 1
10 1
11 1
12 1
13 1
14 1
15 1
16 1
17 1
18 1
19 1
20 1
21 1
22 1
23 1
24 1
25 1
26 1
27 1
28 1
29 1
30 1
31 1
32 1
33 1
34 1
35 1
36 1
37 1
38 1
39 1
40 1
41 1
J174 42
42 1
43 1
44 1
45 1
46 1
47 1
48 1
49 1
50 1
51 1
52 1
53 1
54 1
55 1
56 1
57 1
58 1
59 1
60 1
61 1
62 1
63 1
64 1
65 1
66 1
67 1
68 1
69 1
70 1
71 1
72 1
73 1
74 1
75 1
76 1
77 1
78 1
79 1
80 1
81 1
82 1
83 1
J175 42
84 1
85 1
86 1
87 1
88 1
89 1
90 1
91 1
92 1
93 1
94 1
95 1
96 1
97 1
98 1
99 1
100 1
101 1
102 1
103 1
104 1
105 1
106 1
107 1
108 1
109 1
110 1
111 1
112 1
113 1
114 1
115 1
116 1
117 1
118 1
119 1
120 1
121 1
122 1
123 1
124 1
125 1
G0 462
0 239
1 239
2 239
3 239
4 239
5 239
6 239
7 658
8 658
9 658
10 658
11 658
12 658
13 658
14 100
15 100
16 100
17 100
18 100
19 100
20 100
21 189
22 189
23 189
24 189
25 189
26 189
27 189
28 753
29 753
30 753
31 753
32 753
33 753
34 753
35 419
36 419
37 419
38 419
39 419
40 419
41 419
42 649
43 649
44 649
45 649
46 649
47 649
48 649
49 904
50 904
51 904
52 904
53 904
54 904
55 904
56 993
57 993
58 993
59 993
60 993
61 993
62 993
63 238
64 238
65 238
66 238
67 238
68 238
69 238
70 610
71 610
72 610
73 610
74 610
75 610
76 610
77 967
78 967
79 967
80 967
81 967
82 967
83 967
84 944
85 944
86 944
87 944
88 944
89 944
90 944
91 358
92 358
93 358
94 358
95 358
96 358
97 358
98 772
99 772
100 772
101 772
102 772
103 772
104 772
105 789
106 789
107 789
108 789
109 789
110 789
111 789
112 109
113 109
114 109
115 109
116 109
117 109
118 109
119 360
120 360
121 360
122 360
123 360
124 360
125 360
126 942
127 942
128 942
129 942
130 942
131 942
132 942
133 545
134 545
135 545
136 545
137 545
138 545
139 545
140 929
141 929
142 929
143 929
144 929
145 929
146 929
147 449
148 449
149 449
150 449
151 449
152 449
153 449
154 706
155 706
156 706
157 706
158 706
159 706
160 706
161 763
162 763
163 763
164 763
165 763
166 763
167 763
168 922
169 922
170 922
171 922
172 922
173 922
174 922
175 236
176 236
177 236
178 236
179 236
180 236
181 236
182 858
183 858
184 858
185 858
186 858
187 858
188 858
189 998
190 998
191 998
192 998
193 998
194 998
195 998
196 342
197 342
198 342
199 342
200 342
201 342
202 342
203 642
204 642
205 642
206 642
207 642
208 642
209 642
210 139
211 139
212 139
213 139
214 139
215 139
216 139
217 328
218 328
219 328
220 328
221 328
222 328
223 328
224 647
225 647
226 647
227 647
228 647
229 647
230 647
231 322
232 322
233 322
234 322
235 322
236 322
237 322
238 105
239 105
240 105
241 105
242 105
243 105
244 105
245 421
246 421
247 421
248 421
249 421
250 421
251 421
252 567
253 567
254 567
255 567
256 567
257 567
258 567
259 831
260 831
261 831
262 831
263 831
264 831
265 831
266 174
267 174
268 174
269 174
270 174
271 174
272 174
273 103
274 103
275 103
276 103
277 103
278 103
279 103
280 946
281 946
282 946
283 946
284 946
285 946
286 946
287 745
288 745
289 745
290 745
291 745
292 745
293 745
294 217
295 217
296 217
297 217
298 217
299 217
300 217
301 980
302 980
303 980
304 980
305 980
306 980
307 980
308 705
309 705
310 705
311 705
312 705
313 705
314 705
315 603
316 603
317 603
318 603
319 603
320 603
321 603
322 673
323 673
324 673
325 673
326 673
327 673
328 673
329 540
330 540
331 540
332 540
333 540
334 540
335 540
336 293
337 293
338 293
339 293
340 293
341 293
342 293
343 946
344 946
345 946
346 946
347 946
348 946
349 946
350 814
351 814
352 814
353 814
354 814
355 814
356 814
357 491
358 491
359 491
360 491
361 491
362 491
363 491
364 125
365 125
366 125
367 125
368 125
369 125
370 125
371 534
372 534
373 534
374 534
375 534
376 534
377 534
378 272
379 272
380 272
381 272
382 272
383 272
384 272
385 399
386 399
387 399
388 399
389 399
390 399
391 399
392 744
393 744
394 744
395 744
396 744
397 744
398 744
399 425
400 425
401 425
402 425
403 425
404 425
405 425
406 509
407 509
408 509
409 509
410 509
411 509
412 509
413 217
414 217
415 217
416 217
417 217
418 217
419 217
420 935
421 935
422 935
423 935
424 935
425 935
426 935
427 886
428 886
429 886
430 886
431 886
432 886
433 886
434 823
435 823
436 823
437 823
438 823
439 823
440 823
441 324
442 324
443 324
444 324
445 324
446 324
447 324
448 631
449 631
450 631
451 631
452 631
453 631
454 631
455 212
456 212
457 212
458 212
459 212
460 212
461 212
