datasets/20l7i.sol
 
couenne: Optimization interrupted by user.

Options
3
4
1
0
176
0
504
504
48
52
100
24
49
90
68
0
0
0
0
0
0
0
50
19
60
90
80
70
33
0
0
0
0
0
0
0
0
0
0
0
0
0
0
64
96
30
20.99999999999999
7
0
2
0
0
0
0
0
0
0
0
0
0
0
0
0
0
0
0
0
0
0
0
0
12
50
50
100
100
40
80
0
0
0
0
0
0
0
0
0
0
0
0
0
0
0
0
0
0
0
0
0
36
44
22.99999999993303
37.000000000000014
111.00000000006695
6
31
0
0
0
0
0
0
0
0
0
0
0
0
0
0
80
130
90
80
43
70
80
110
9
47.00000000006696
48
9.999999999933053
124
106
0
0
0
0
0
0
0
0
0
0
0
20
0
0
0
0
0
0
0
0
0
60
70
70
50
10
90
150
0
0
0
0
0
0
0
0
0
0
0
0
0
0
0
0
0
0
0
0
0
60
90
80
100
80
80
90
0
0
0
0
0
0
0
0
0
0
0
0
0
0
0
0
0
0
0
0
0
0
0
0
0
0
0
0
0
0
0
0
0
0
0
0
0
0
0
0
0
0
0
0
0
0
0
0
0
0
0
0
0
0
0
0
0
0
0
0
0
0
0
70
70
60
50
90
90
50
0
0
0
0
0
0
0
0
0
0
0
0
0
0
66
48
70
64
70
80
70
4
2
0
26
40
0
0
0
0
0
0
0
0
0
0
0
0
0
0
0
0
96
119
120
70.99999999999997
66
60
33
0
0
0
0
0
0
0
0
0
0
0
0
0
0
0
0
0
0
0
0
0
0
0
0
0
0
0
0
44
1
0
39.00000000000002
24
0
7
96
119
120
70.99999999999997
66
60
33
0
0
0
0
0
0
0
0
0
0
0
0
0
0
0
0
0
0
0
20
0
12
50
50.00000000000001
100
100
40
80
48
40
29.999999999999993
0
0
20
10
66
48
70
64
70
80
70
0
0
0
0
0
0
0
0
0
0
0
0
0
0
0
0
0
0
0
0
0
0
0
0
0
0
0
0
64
72
70
76
50
90
150
0
0
0
0
0
0
0
0
0
0
0
0
0
0
0
0
0
0
0
0
0
0
0
0
0
0
0
0
0
0
0
0
0
0
0
114
71
60
89.00000000000001
114
90
57
12
8
0
16
11
0
2
54
46
47.00000000006697
42.999999999999986
38.99999999993305
34
49
0
11
0
0
0
0
7
8
0
0
0
0
0
0
0
0
0
0
7
0
0
26
35
52.99999999993303
41.00000000000001
43.00000000006695
66
42
objno 0 422
